	Costo	Iter.	Tiempo
1	533,8	141	6,073
2	873,3	163	12,629
3	854,69	218	68,458
4	1100,57	170	301,943
5	1431,25	83	300,856
6	562,32	318	55,166
7	948,7	99	301,922
8	918,34	87	302,056
9	1259,18	6	309,326
10	1582,49	3	376,265
11	1215,66	165	216,578
12	845,27	185	113,453
13	1642,84	195	263,625
14	901,98	111	62,281
